unsat
((set-logic NIA)
(declare-fun r!2 () Int)
(declare-fun s!1 () Int)
(declare-fun x!0 () Int)
(proof
(let ((?x1216 (* r!2 r!2)))
 (let ((?x924 (* 3 ?x1216)))
 (let ((?x1364 (* (- 1) s!1)))
 (let ((?x255 (* r00 r00)))
 (let ((?x269 (* (- 3) ?x255)))
 (let ((?x1372 (+ s00 ?x269 ?x1364 ?x924)))
 (let (($x1359 (<= ?x1372 0)))
 (let (($x1011 (= ?x1372 0)))
 (let ((?x1021 (* (- 1) x!0)))
 (let ((?x564 (+ 3 (* 6 r!2) s!1)))
 (let ((?x562 (+ ?x1364 x!0)))
 (let ((?x561 (+ 1 r!2)))
 (let ((?x1237 (* (- 1) (* ?x561 ?x561 ?x561 ?x562 ?x562 ?x562 ?x564))))
 (let ((?x672 (* (+ (* ?x561 ?x561 ?x561 ?x562 ?x562 ?x564 ?x564 ?x564) ?x1364 x!0) (+ ?x1237 ?x1364 ?x1021) ?x1372)))
 (let (($x483 (= ?x672 0)))
 (let (($x674 (not $x483)))
 (let ((?x1300 (* x00 x00)))
 (let ((?x310 (* 108 ?x1300)))
 (let ((?x1293 (* r00 r00 s!1)))
 (let ((?x1130 (* 36 ?x1293)))
 (let ((?x1171 (* (- 9) s!1)))
 (let ((?x1138 (* s00 s00 s00)))
 (let ((?x1029 (* 16 ?x1138)))
 (let ((?x836 (* r00 r00 r00 x00)))
 (let ((?x846 (* (- 432) ?x836)))
 (let ((?x759 (* s00 x00)))
 (let ((?x842 (* (- 108) ?x759)))
 (let ((?x601 (* s00 r00 r00)))
 (let ((?x1335 (* (- 36) ?x601)))
 (let ((?x545 (* s00 s00)))
 (let ((?x1092 (* 51 ?x545)))
 (let ((?x476 (* r00 x00)))
 (let ((?x333 (* 108 ?x476)))
 (let ((?x137 (* 9 s00)))
 (let ((?x585 (+ ?x137 (* (- 12) (* s00 s!1 s!1)) (* (- 54) (* s00 r00)) (* 432 (* r00 r00 r00 x!0)) (* 216 (* s00 r00 x00)) ?x333 (* (- 4) (* s!1 s!1 s!1)) (* (- 108) (* s!1 x!0)) (* 54 (* r00 s!1)) (* (- 216) (* x00 x!0)) ?x1092 ?x1335 (* (- 108) (* s00 s00 r00)) (* (- 36) (* s00 s00 r00 r00)) (* (- 108) (* r00 x!0)) ?x842 ?x846 (* 36 (* r00 r00 s!1 s!1)) (* (- 216) (* s00 r00 x!0)) (* 216 (* s00 r00 r00 r00)) (* (- 216) (* r00 r00 r00 s!1)) (* 108 (* x!0 x!0)) (* 108 (* s00 x!0)) ?x1029 (* (- 66) (* s00 s!1)) ?x1171 (* 108 (* x00 s!1)) ?x1130 ?x310 (* 15 (* s!1 s!1)) (* 108 (* s00 r00 s!1)))))
 (let ((?x831 (* r00 r00 x00)))
 (let ((?x681 (* 36 ?x831)))
 (let ((?x372 (* (- 6) ?x759)))
 (let ((?x687 (* 15 ?x545)))
 (let ((?x972 (* 54 ?x476)))
 (let ((?x1537 (+ ?x137 (* (- 2) (* r!2 s!1 s!1)) (* (- 24) (* s00 r00)) ?x972 (* (- 6) (* s!1 x!0)) (* 24 (* r00 s!1)) ?x687 ?x1335 (* 2 (* s00 s00 r00)) (* (- 24) (* s00 r!2)) (* (- 36) (* r00 r!2 x!0)) (* (- 54) (* r00 x!0)) ?x372 (* (- 2) (* s00 r!2 s!1)) ?x681 (* 54 (* x00 r!2)) (* 36 (* r00 x00 r!2)) (* (- 36) (* r00 r00 x!0)) (* (- 4) (* r00 s!1 s!1)) (* 6 (* s00 x!0)) (* (- 12) (* s00 s!1)) (* 24 (* r!2 s!1)) ?x1171 (* 6 (* x00 s!1)) ?x1130 (* (- 3) (* s!1 s!1)) (* (- 54) (* r!2 x!0)) (* 2 (* s00 r00 s!1)) (* 4 (* s00 s00 r!2)))))
 (let ((?x1278 (* (- 3) s!1)))
 (let ((?x1078 (* 4 ?x545)))
 (let ((?x488 (* 18 ?x476)))
 (let ((?x44 (* 3 s00)))
 (let ((?x989 (+ ?x44 (* (- 9) (* s00 r00)) ?x488 (* 9 (* r00 s!1)) (* 6 (* s00 r00 r!2)) ?x1078 (* (- 6) ?x601) (* (- 9) (* s00 r!2)) (* (- 18) (* r00 x!0)) (* 18 (* x00 r!2)) (* (- 2) (* s00 s!1)) (* 9 (* r!2 s!1)) ?x1278 (* (- 6) (* r00 r!2 s!1)) (* 6 ?x1293) (* (- 2) (* s!1 s!1)) (* (- 18) (* r!2 x!0)))))
 (let ((?x513 (* 6 x!0)))
 (let ((?x1155 (* r!2 s!1)))
 (let ((?x1159 (* 2 ?x1155)))
 (let ((?x402 (* 3 r!2)))
 (let ((?x423 (* r00 r00 r00)))
 (let ((?x424 (* 12 ?x423)))
 (let ((?x380 (* s00 r00)))
 (let ((?x458 (* (- 6) ?x380)))
 (let ((?x455 (* (- 6) x00)))
 (let ((?x454 (* (- 3) r00)))
 (let ((?x340 (+ ?x44 ?x454 ?x455 ?x458 ?x424 (* 4 (* s00 r!2)) ?x402 (* (- 12) (* r00 r00 r!2)) ?x1159 ?x1278 ?x513)))
 (let (($x668 (and $x1011 (= ?x340 0) (= ?x989 0) (= ?x1537 0) (= ?x585 0) $x674)))
 (let ((?x634 (* (+ ?x1364 x!0 (* ?x561 ?x561 ?x561 ?x562 ?x562 ?x564 ?x564 ?x564)) (+ ?x1364 ?x1021 ?x1237) (+ ?x1364 s00 ?x924 ?x269))))
 (let ((?x1330 (* (- 108) ?x1300)))
 (let ((?x1329 (* (- 16) ?x1138)))
 (let ((?x1010 (* s00 r00 r00 r00)))
 (let ((?x1325 (* (- 216) ?x1010)))
 (let ((?x837 (* 432 ?x836)))
 (let ((?x1083 (* 108 ?x759)))
 (let ((?x685 (* s00 s00 r00 r00)))
 (let ((?x686 (* 36 ?x685)))
 (let ((?x622 (* s00 s00 r00)))
 (let ((?x966 (* 108 ?x622)))
 (let ((?x954 (* 36 ?x601)))
 (let ((?x1319 (* (- 51) ?x545)))
 (let ((?x1361 (* s!1 r00 r00)))
 (let ((?x932 (* (- 36) ?x1361)))
 (let ((?x1316 (* (- 108) ?x476)))
 (let ((?x467 (* s00 r00 x00)))
 (let ((?x1315 (* (- 216) ?x467)))
 (let ((?x474 (* 54 ?x380)))
 (let ((?x941 (* (- 9) s00)))
 (let ((?x1314 (* 9 s!1)))
 (let ((?x1357 (+ ?x1314 ?x941 ?x474 ?x1315 ?x1316 (* (- 15) (* s!1 s!1)) ?x932 ?x1319 (* (- 108) (* x!0 s00)) (* 108 (* x!0 r00)) (* 216 (* s!1 r00 r00 r00)) ?x954 ?x966 (* 66 (* s!1 s00)) (* (- 54) (* s!1 r00)) (* (- 108) (* s!1 x00)) ?x686 (* (- 108) (* s!1 s00 r00)) (* 4 (* s!1 s!1 s!1)) ?x1083 (* 108 (* s!1 x!0)) (* (- 108) (* x!0 x!0)) ?x837 (* 12 (* s!1 s!1 s00)) ?x1325 (* (- 432) (* x!0 r00 r00 r00)) (* 216 (* x!0 s00 r00)) (* (- 36) (* s!1 s!1 r00 r00)) ?x1329 (* 216 (* x!0 x00)) ?x1330)))
 (let ((?x844 (* (- 36) ?x831)))
 (let ((?x760 (* 6 ?x759)))
 (let ((?x650 (* (- 2) ?x622)))
 (let ((?x870 (* (- 15) ?x545)))
 (let ((?x505 (* (- 54) ?x476)))
 (let ((?x518 (* 24 ?x380)))
 (let ((?x874 (+ ?x1314 ?x941 (* (- 24) ?x1155) (* 24 (* r!2 s00)) ?x518 ?x505 (* 3 (* s!1 s!1)) (* 54 (* r!2 x!0)) (* 36 (* r!2 x!0 r00)) ?x932 ?x870 (* (- 6) (* x!0 s00)) (* 54 (* x!0 r00)) ?x954 (* 4 (* s!1 s!1 r00)) (* (- 54) (* r!2 x00)) ?x650 (* 12 (* s!1 s00)) (* (- 24) (* s!1 r00)) (* (- 6) (* s!1 x00)) (* (- 2) (* s!1 s00 r00)) ?x760 (* 2 (* r!2 s!1 s!1)) (* 6 (* s!1 x!0)) (* (- 4) (* r!2 s00 s00)) ?x844 (* 2 (* r!2 s!1 s00)) (* (- 36) (* r!2 r00 x00)) (* 36 (* x!0 r00 r00)))))
 (let ((?x602 (* 6 ?x601)))
 (let ((?x558 (* (- 4) ?x545)))
 (let ((?x490 (* (- 18) ?x476)))
 (let ((?x495 (* 9 ?x380)))
 (let ((?x332 (* (- 3) s00)))
 (let ((?x1292 (+ (* 3 s!1) ?x332 (* (- 9) ?x1155) (* 9 (* r!2 s00)) ?x495 ?x490 (* 2 (* s!1 s!1)) (* 18 (* r!2 x!0)) (* 6 (* r!2 s!1 r00)) (* (- 6) ?x1361) ?x558 (* 18 (* x!0 r00)) ?x602 (* (- 18) (* r!2 x00)) (* 2 (* s!1 s00)) (* (- 9) (* s!1 r00)) (* (- 6) (* r!2 s00 r00)))))
 (let ((?x1022 (+ ?x402 ?x1278 ?x513 ?x44 ?x454 ?x455 ?x1159 (* (- 12) (* r!2 r00 r00)) (* 4 (* r!2 s00)) ?x458 ?x424)))
 (let (($x999 (and (= (+ s!1 (* (- 1) s00) (* (- 3) ?x1216) (* 3 ?x255)) 0) (= ?x1022 0) (= ?x1292 0) (= ?x874 0) (= ?x1357 0) (not (= ?x634 0)))))
 (let (($x1234 (exists ((r Int) (s Int) (x Int) )(! (let ((?x255 (* r00 r00)))
 (let ((?x269 (* (- 3) ?x255)))
 (let ((?x243 (* r r)))
 (let ((?x244 (* 3 ?x243)))
 (let ((?x234 (* (- 1) s)))
 (let ((?x211 (* 6 r)))
 (let ((?x1337 (+ 3 ?x211 s)))
 (let ((?x1432 (+ ?x234 x)))
 (let ((?x1370 (+ 1 r)))
 (let ((?x1605 (* (- 1) x)))
 (let ((?x1266 (* (+ ?x234 x (* ?x1370 ?x1370 ?x1370 ?x1432 ?x1432 ?x1337 ?x1337 ?x1337)) (+ ?x234 ?x1605 (* (- 1) (* ?x1370 ?x1370 ?x1370 ?x1432 ?x1432 ?x1432 ?x1337))) (+ ?x234 s00 ?x244 ?x269))))
 (let ((?x1300 (* x00 x00)))
 (let ((?x1330 (* (- 108) ?x1300)))
 (let ((?x1138 (* s00 s00 s00)))
 (let ((?x1329 (* (- 16) ?x1138)))
 (let ((?x1010 (* s00 r00 r00 r00)))
 (let ((?x1325 (* (- 216) ?x1010)))
 (let ((?x836 (* r00 r00 r00 x00)))
 (let ((?x837 (* 432 ?x836)))
 (let ((?x759 (* s00 x00)))
 (let ((?x1083 (* 108 ?x759)))
 (let ((?x685 (* s00 s00 r00 r00)))
 (let ((?x686 (* 36 ?x685)))
 (let ((?x622 (* s00 s00 r00)))
 (let ((?x966 (* 108 ?x622)))
 (let ((?x601 (* s00 r00 r00)))
 (let ((?x954 (* 36 ?x601)))
 (let ((?x545 (* s00 s00)))
 (let ((?x1319 (* (- 51) ?x545)))
 (let ((?x519 (* s r00 r00)))
 (let ((?x818 (* (- 36) ?x519)))
 (let ((?x476 (* r00 x00)))
 (let ((?x1316 (* (- 108) ?x476)))
 (let ((?x467 (* s00 r00 x00)))
 (let ((?x1315 (* (- 216) ?x467)))
 (let ((?x380 (* s00 r00)))
 (let ((?x474 (* 54 ?x380)))
 (let ((?x941 (* (- 9) s00)))
 (let ((?x143 (* 9 s)))
 (let ((?x1331 (+ ?x143 ?x941 ?x474 ?x1315 ?x1316 (* (- 15) (* s s)) ?x818 ?x1319 (* (- 108) (* x s00)) (* 108 (* x r00)) (* 216 (* s r00 r00 r00)) ?x954 ?x966 (* 66 (* s s00)) (* (- 54) (* s r00)) (* (- 108) (* s x00)) ?x686 (* (- 108) (* s s00 r00)) (* 4 (* s s s)) ?x1083 (* 108 (* s x)) (* (- 108) (* x x)) ?x837 (* 12 (* s s s00)) ?x1325 (* (- 432) (* x r00 r00 r00)) (* 216 (* x s00 r00)) (* (- 36) (* s s r00 r00)) ?x1329 (* 216 (* x x00)) ?x1330)))
 (let (($x1332 (= ?x1331 0)))
 (let ((?x831 (* r00 r00 x00)))
 (let ((?x844 (* (- 36) ?x831)))
 (let ((?x760 (* 6 ?x759)))
 (let ((?x650 (* (- 2) ?x622)))
 (let ((?x870 (* (- 15) ?x545)))
 (let ((?x499 (* s s)))
 (let ((?x523 (* 3 ?x499)))
 (let ((?x505 (* (- 54) ?x476)))
 (let ((?x518 (* 24 ?x380)))
 (let ((?x1033 (+ ?x143 ?x941 (* (- 24) (* r s)) (* 24 (* r s00)) ?x518 ?x505 ?x523 (* 54 (* r x)) (* 36 (* r x r00)) ?x818 ?x870 (* (- 6) (* x s00)) (* 54 (* x r00)) ?x954 (* 4 (* s s r00)) (* (- 54) (* r x00)) ?x650 (* 12 (* s s00)) (* (- 24) (* s r00)) (* (- 6) (* s x00)) (* (- 2) (* s s00 r00)) ?x760 (* 2 (* r s s)) (* 6 (* s x)) (* (- 4) (* r s00 s00)) ?x844 (* 2 (* r s s00)) (* (- 36) (* r r00 x00)) (* 36 (* x r00 r00)))))
 (let (($x1038 (= ?x1033 0)))
 (let ((?x602 (* 6 ?x601)))
 (let ((?x558 (* (- 4) ?x545)))
 (let ((?x500 (* 2 ?x499)))
 (let ((?x490 (* (- 18) ?x476)))
 (let ((?x495 (* 9 ?x380)))
 (let ((?x332 (* (- 3) s00)))
 (let ((?x47 (* 3 s)))
 (let ((?x699 (+ ?x47 ?x332 (* (- 9) (* r s)) (* 9 (* r s00)) ?x495 ?x490 ?x500 (* 18 (* r x)) (* 6 (* r s r00)) (* (- 6) ?x519) ?x558 (* 18 (* x r00)) ?x602 (* (- 18) (* r x00)) (* 2 (* s s00)) (* (- 9) (* s r00)) (* (- 6) (* r s00 r00)))))
 (let (($x706 (= ?x699 0)))
 (let ((?x423 (* r00 r00 r00)))
 (let ((?x424 (* 12 ?x423)))
 (let ((?x458 (* (- 6) ?x380)))
 (let ((?x455 (* (- 6) x00)))
 (let ((?x454 (* (- 3) r00)))
 (let ((?x44 (* 3 s00)))
 (let ((?x56 (* 6 x)))
 (let ((?x453 (* (- 3) s)))
 (let ((?x43 (* 3 r)))
 (let ((?x459 (+ ?x43 ?x453 ?x56 ?x44 ?x454 ?x455 (* 2 (* r s)) (* (- 12) (* r r00 r00)) (* 4 (* r s00)) ?x458 ?x424)))
 (let (($x460 (= ?x459 0)))
 (let (($x288 (= (+ s (* (- 1) s00) (* (- 3) ?x243) (* 3 ?x255)) 0)))
 (and $x288 $x460 $x706 $x1038 $x1332 (not (= ?x1266 0)))))))))))))))))))))))))))))))))))))))))))))))))))))))))))))))))))))))))))) :qid k!35))
 ))
 (let (($x437 (exists ((r Int) (s Int) (x Int) )(! (let ((?x255 (* r00 r00)))
 (let ((?x269 (* (- 3) ?x255)))
 (let ((?x234 (* (- 1) s)))
 (let ((?x1069 (+ (- 3) s00 ?x234 (* (- 6) r) (* 3 (* (+ 1 r) (+ 1 r))) ?x269)))
 (let ((?x1605 (* (- 1) x)))
 (let ((?x211 (* 6 r)))
 (let ((?x777 (+ 3 s ?x211)))
 (let ((?x845 (+ x ?x234)))
 (let ((?x1370 (+ 1 r)))
 (let ((?x610 (* (+ (* ?x1370 ?x1370 ?x1370 ?x845 ?x845 ?x777 ?x777 ?x777) x ?x234) (+ (* (- 1) (* ?x1370 ?x1370 ?x1370 ?x845 ?x845 ?x845 ?x777)) ?x1605 ?x234) ?x1069)))
 (let (($x673 (not (= ?x610 0))))
 (let ((?x1300 (* x00 x00)))
 (let ((?x310 (* 108 ?x1300)))
 (let ((?x1242 (* (- 9) s)))
 (let ((?x728 (* r00 r00 s00)))
 (let ((?x1195 (* (- 36) ?x728)))
 (let ((?x137 (* 9 s00)))
 (let ((?x545 (* s00 s00)))
 (let ((?x1092 (* 51 ?x545)))
 (let ((?x959 (* r00 r00 s)))
 (let ((?x641 (* 36 ?x959)))
 (let ((?x1138 (* s00 s00 s00)))
 (let ((?x1029 (* 16 ?x1138)))
 (let ((?x759 (* s00 x00)))
 (let ((?x842 (* (- 108) ?x759)))
 (let ((?x836 (* r00 r00 r00 x00)))
 (let ((?x846 (* (- 432) ?x836)))
 (let ((?x476 (* r00 x00)))
 (let ((?x333 (* 108 ?x476)))
 (let ((?x298 (+ (* 216 (* r00 s00 x00)) ?x333 (* (- 54) (* r00 s00)) (* 15 (* s s)) (* (- 216) (* r00 r00 r00 s)) (* (- 36) (* r00 r00 s00 s00)) (* (- 4) (* s s s)) (* 108 (* x x)) ?x846 (* (- 12) (* s00 s s)) (* 108 (* s00 x)) (* (- 108) (* r00 s00 s00)) (* 216 (* r00 r00 r00 s00)) (* 108 (* x00 s)) (* 432 (* r00 r00 r00 x)) (* (- 66) (* s00 s)) (* 108 (* r00 s00 s)) ?x842 (* (- 216) (* r00 s00 x)) (* 36 (* r00 r00 s s)) ?x1029 (* (- 108) (* x s)) ?x641 ?x1092 (* (- 108) (* r00 x)) ?x137 ?x1195 ?x1242 (* 54 (* r00 s)) (* (- 216) (* x00 x)) ?x310)))
 (let (($x323 (= ?x298 0)))
 (let ((?x687 (* 15 ?x545)))
 (let ((?x831 (* r00 r00 x00)))
 (let ((?x681 (* 36 ?x831)))
 (let ((?x372 (* (- 6) ?x759)))
 (let ((?x972 (* 54 ?x476)))
 (let ((?x1296 (+ (* 24 (* s r)) ?x972 (* (- 36) (* r00 x r)) (* (- 24) (* r00 s00)) (* (- 3) (* s s)) (* (- 54) (* x r)) (* 6 (* s00 x)) (* (- 4) (* r00 s s)) (* 2 (* r00 s00 s00)) (* 6 (* x00 s)) (* (- 12) (* s00 s)) (* 2 (* r00 s00 s)) ?x372 (* (- 2) (* s s r)) (* (- 6) (* x s)) (* 4 (* s00 s00 r)) ?x641 ?x681 ?x687 (* (- 2) (* s00 s r)) (* 36 (* r00 x00 r)) (* (- 54) (* r00 x)) ?x137 ?x1195 (* 54 (* x00 r)) ?x1242 (* (- 24) (* s00 r)) (* 24 (* r00 s)) (* (- 36) (* r00 r00 x)))))
 (let ((?x453 (* (- 3) s)))
 (let ((?x44 (* 3 s00)))
 (let ((?x1078 (* 4 ?x545)))
 (let ((?x488 (* 18 ?x476)))
 (let ((?x771 (+ (* 9 (* s r)) ?x488 (* (- 9) (* r00 s00)) (* (- 2) (* s s)) (* (- 18) (* x r)) (* (- 6) (* r00 s r)) (* 6 ?x959) ?x1078 (* (- 18) (* r00 x)) ?x44 (* (- 6) ?x728) (* 18 (* x00 r)) ?x453 (* (- 9) (* s00 r)) (* (- 2) (* s00 s)) (* 9 (* r00 s)) (* 6 (* r00 s00 r)))))
 (let ((?x423 (* r00 r00 r00)))
 (let ((?x424 (* 12 ?x423)))
 (let ((?x455 (* (- 6) x00)))
 (let ((?x56 (* 6 x)))
 (let ((?x454 (* (- 3) r00)))
 (let ((?x43 (* 3 r)))
 (let ((?x1258 (+ (* 2 (* s r)) (* (- 12) (* r00 r00 r)) ?x43 ?x44 ?x453 ?x454 (* 4 (* s00 r)) (* (- 6) (* r00 s00)) ?x56 ?x455 ?x424)))
 (let (($x805 (= (+ s00 ?x234 (* 3 (* r r)) ?x269) 0)))
 (and $x805 (= ?x1258 0) (= ?x771 0) (= ?x1296 0) $x323 $x673))))))))))))))))))))))))))))))))))))))))))))))))))) :qid k!35))
 ))
 (let ((?x1235 (lambda ((r Int) (s Int) (x Int) )(let ((?x255 (* r00 r00)))
 (let ((?x269 (* (- 3) ?x255)))
 (let ((?x243 (* r r)))
 (let ((?x244 (* 3 ?x243)))
 (let ((?x234 (* (- 1) s)))
 (let ((?x211 (* 6 r)))
 (let ((?x1337 (+ 3 ?x211 s)))
 (let ((?x1432 (+ ?x234 x)))
 (let ((?x1370 (+ 1 r)))
 (let ((?x1605 (* (- 1) x)))
 (let ((?x1266 (* (+ ?x234 x (* ?x1370 ?x1370 ?x1370 ?x1432 ?x1432 ?x1337 ?x1337 ?x1337)) (+ ?x234 ?x1605 (* (- 1) (* ?x1370 ?x1370 ?x1370 ?x1432 ?x1432 ?x1432 ?x1337))) (+ ?x234 s00 ?x244 ?x269))))
 (let ((?x1300 (* x00 x00)))
 (let ((?x1330 (* (- 108) ?x1300)))
 (let ((?x1138 (* s00 s00 s00)))
 (let ((?x1329 (* (- 16) ?x1138)))
 (let ((?x1010 (* s00 r00 r00 r00)))
 (let ((?x1325 (* (- 216) ?x1010)))
 (let ((?x836 (* r00 r00 r00 x00)))
 (let ((?x837 (* 432 ?x836)))
 (let ((?x759 (* s00 x00)))
 (let ((?x1083 (* 108 ?x759)))
 (let ((?x685 (* s00 s00 r00 r00)))
 (let ((?x686 (* 36 ?x685)))
 (let ((?x622 (* s00 s00 r00)))
 (let ((?x966 (* 108 ?x622)))
 (let ((?x601 (* s00 r00 r00)))
 (let ((?x954 (* 36 ?x601)))
 (let ((?x545 (* s00 s00)))
 (let ((?x1319 (* (- 51) ?x545)))
 (let ((?x519 (* s r00 r00)))
 (let ((?x818 (* (- 36) ?x519)))
 (let ((?x476 (* r00 x00)))
 (let ((?x1316 (* (- 108) ?x476)))
 (let ((?x467 (* s00 r00 x00)))
 (let ((?x1315 (* (- 216) ?x467)))
 (let ((?x380 (* s00 r00)))
 (let ((?x474 (* 54 ?x380)))
 (let ((?x941 (* (- 9) s00)))
 (let ((?x143 (* 9 s)))
 (let ((?x1331 (+ ?x143 ?x941 ?x474 ?x1315 ?x1316 (* (- 15) (* s s)) ?x818 ?x1319 (* (- 108) (* x s00)) (* 108 (* x r00)) (* 216 (* s r00 r00 r00)) ?x954 ?x966 (* 66 (* s s00)) (* (- 54) (* s r00)) (* (- 108) (* s x00)) ?x686 (* (- 108) (* s s00 r00)) (* 4 (* s s s)) ?x1083 (* 108 (* s x)) (* (- 108) (* x x)) ?x837 (* 12 (* s s s00)) ?x1325 (* (- 432) (* x r00 r00 r00)) (* 216 (* x s00 r00)) (* (- 36) (* s s r00 r00)) ?x1329 (* 216 (* x x00)) ?x1330)))
 (let (($x1332 (= ?x1331 0)))
 (let ((?x831 (* r00 r00 x00)))
 (let ((?x844 (* (- 36) ?x831)))
 (let ((?x760 (* 6 ?x759)))
 (let ((?x650 (* (- 2) ?x622)))
 (let ((?x870 (* (- 15) ?x545)))
 (let ((?x499 (* s s)))
 (let ((?x523 (* 3 ?x499)))
 (let ((?x505 (* (- 54) ?x476)))
 (let ((?x518 (* 24 ?x380)))
 (let ((?x1033 (+ ?x143 ?x941 (* (- 24) (* r s)) (* 24 (* r s00)) ?x518 ?x505 ?x523 (* 54 (* r x)) (* 36 (* r x r00)) ?x818 ?x870 (* (- 6) (* x s00)) (* 54 (* x r00)) ?x954 (* 4 (* s s r00)) (* (- 54) (* r x00)) ?x650 (* 12 (* s s00)) (* (- 24) (* s r00)) (* (- 6) (* s x00)) (* (- 2) (* s s00 r00)) ?x760 (* 2 (* r s s)) (* 6 (* s x)) (* (- 4) (* r s00 s00)) ?x844 (* 2 (* r s s00)) (* (- 36) (* r r00 x00)) (* 36 (* x r00 r00)))))
 (let (($x1038 (= ?x1033 0)))
 (let ((?x602 (* 6 ?x601)))
 (let ((?x558 (* (- 4) ?x545)))
 (let ((?x500 (* 2 ?x499)))
 (let ((?x490 (* (- 18) ?x476)))
 (let ((?x495 (* 9 ?x380)))
 (let ((?x332 (* (- 3) s00)))
 (let ((?x47 (* 3 s)))
 (let ((?x699 (+ ?x47 ?x332 (* (- 9) (* r s)) (* 9 (* r s00)) ?x495 ?x490 ?x500 (* 18 (* r x)) (* 6 (* r s r00)) (* (- 6) ?x519) ?x558 (* 18 (* x r00)) ?x602 (* (- 18) (* r x00)) (* 2 (* s s00)) (* (- 9) (* s r00)) (* (- 6) (* r s00 r00)))))
 (let (($x706 (= ?x699 0)))
 (let ((?x423 (* r00 r00 r00)))
 (let ((?x424 (* 12 ?x423)))
 (let ((?x458 (* (- 6) ?x380)))
 (let ((?x455 (* (- 6) x00)))
 (let ((?x454 (* (- 3) r00)))
 (let ((?x44 (* 3 s00)))
 (let ((?x56 (* 6 x)))
 (let ((?x453 (* (- 3) s)))
 (let ((?x43 (* 3 r)))
 (let ((?x459 (+ ?x43 ?x453 ?x56 ?x44 ?x454 ?x455 (* 2 (* r s)) (* (- 12) (* r r00 r00)) (* 4 (* r s00)) ?x458 ?x424)))
 (let (($x460 (= ?x459 0)))
 (let (($x288 (= (+ s (* (- 1) s00) (* (- 3) ?x243) (* 3 ?x255)) 0)))
 (let (($x469 (and $x288 $x460 $x706 $x1038 $x1332 (not (= ?x1266 0)))))
 (let ((?x777 (+ 3 s ?x211)))
 (let ((?x845 (+ x ?x234)))
 (let ((?x610 (* (+ (* ?x1370 ?x1370 ?x1370 ?x845 ?x845 ?x777 ?x777 ?x777) x ?x234) (+ (* (- 1) (* ?x1370 ?x1370 ?x1370 ?x845 ?x845 ?x845 ?x777)) ?x1605 ?x234) (+ (- 3) s00 ?x234 (* (- 6) r) (* 3 (* ?x1370 ?x1370)) ?x269))))
 (let (($x673 (not (= ?x610 0))))
 (let ((?x310 (* 108 ?x1300)))
 (let ((?x1242 (* (- 9) s)))
 (let ((?x728 (* r00 r00 s00)))
 (let ((?x1195 (* (- 36) ?x728)))
 (let ((?x137 (* 9 s00)))
 (let ((?x1092 (* 51 ?x545)))
 (let ((?x959 (* r00 r00 s)))
 (let ((?x641 (* 36 ?x959)))
 (let ((?x1029 (* 16 ?x1138)))
 (let ((?x842 (* (- 108) ?x759)))
 (let ((?x846 (* (- 432) ?x836)))
 (let ((?x333 (* 108 ?x476)))
 (let ((?x298 (+ (* 216 (* r00 s00 x00)) ?x333 (* (- 54) (* r00 s00)) (* 15 ?x499) (* (- 216) (* r00 r00 r00 s)) (* (- 36) (* r00 r00 s00 s00)) (* (- 4) (* s s s)) (* 108 (* x x)) ?x846 (* (- 12) (* s00 s s)) (* 108 (* s00 x)) (* (- 108) (* r00 s00 s00)) (* 216 (* r00 r00 r00 s00)) (* 108 (* x00 s)) (* 432 (* r00 r00 r00 x)) (* (- 66) (* s00 s)) (* 108 (* r00 s00 s)) ?x842 (* (- 216) (* r00 s00 x)) (* 36 (* r00 r00 s s)) ?x1029 (* (- 108) (* x s)) ?x641 ?x1092 (* (- 108) (* r00 x)) ?x137 ?x1195 ?x1242 (* 54 (* r00 s)) (* (- 216) (* x00 x)) ?x310)))
 (let (($x323 (= ?x298 0)))
 (let ((?x687 (* 15 ?x545)))
 (let ((?x681 (* 36 ?x831)))
 (let ((?x372 (* (- 6) ?x759)))
 (let ((?x972 (* 54 ?x476)))
 (let ((?x1296 (+ (* 24 (* s r)) ?x972 (* (- 36) (* r00 x r)) (* (- 24) (* r00 s00)) (* (- 3) ?x499) (* (- 54) (* x r)) (* 6 (* s00 x)) (* (- 4) (* r00 s s)) (* 2 (* r00 s00 s00)) (* 6 (* x00 s)) (* (- 12) (* s00 s)) (* 2 (* r00 s00 s)) ?x372 (* (- 2) (* s s r)) (* (- 6) (* x s)) (* 4 (* s00 s00 r)) ?x641 ?x681 ?x687 (* (- 2) (* s00 s r)) (* 36 (* r00 x00 r)) (* (- 54) (* r00 x)) ?x137 ?x1195 (* 54 (* x00 r)) ?x1242 (* (- 24) (* s00 r)) (* 24 (* r00 s)) (* (- 36) (* r00 r00 x)))))
 (let ((?x1078 (* 4 ?x545)))
 (let ((?x488 (* 18 ?x476)))
 (let ((?x771 (+ (* 9 (* s r)) ?x488 (* (- 9) (* r00 s00)) (* (- 2) ?x499) (* (- 18) (* x r)) (* (- 6) (* r00 s r)) (* 6 ?x959) ?x1078 (* (- 18) (* r00 x)) ?x44 (* (- 6) ?x728) (* 18 (* x00 r)) ?x453 (* (- 9) (* s00 r)) (* (- 2) (* s00 s)) (* 9 (* r00 s)) (* 6 (* r00 s00 r)))))
 (let ((?x1258 (+ (* 2 (* s r)) (* (- 12) (* r00 r00 r)) ?x43 ?x44 ?x453 ?x454 (* 4 (* s00 r)) (* (- 6) (* r00 s00)) ?x56 ?x455 ?x424)))
 (let (($x805 (= (+ s00 ?x234 ?x244 ?x269) 0)))
 (let (($x438 (and $x805 (= ?x1258 0) (= ?x771 0) (= ?x1296 0) $x323 $x673)))
 (rewrite (= $x438 $x469))))))))))))))))))))))))))))))))))))))))))))))))))))))))))))))))))))))))))))))))))))))))))))))))))))))))))
 ))
 (let (($x697 (exists ((r Int) (s Int) (x Int) )(! (let ((?x255 (* r00 r00)))
 (let ((?x269 (* (- 3) ?x255)))
 (let ((?x234 (* (- 1) s)))
 (let ((?x1069 (+ (- 3) s00 ?x234 (* (- 6) r) (* 3 (* (+ 1 r) (+ 1 r))) ?x269)))
 (let ((?x1605 (* (- 1) x)))
 (let ((?x211 (* 6 r)))
 (let ((?x777 (+ 3 s ?x211)))
 (let ((?x845 (+ x ?x234)))
 (let ((?x1370 (+ 1 r)))
 (let ((?x610 (* (+ (* ?x1370 ?x1370 ?x1370 ?x845 ?x845 ?x777 ?x777 ?x777) x ?x234) (+ (* (- 1) (* ?x1370 ?x1370 ?x1370 ?x845 ?x845 ?x845 ?x777)) ?x1605 ?x234) ?x1069)))
 (let (($x673 (not (= ?x610 0))))
 (let ((?x1300 (* x00 x00)))
 (let ((?x310 (* 108 ?x1300)))
 (let ((?x1242 (* (- 9) s)))
 (let ((?x728 (* r00 r00 s00)))
 (let ((?x1195 (* (- 36) ?x728)))
 (let ((?x137 (* 9 s00)))
 (let ((?x545 (* s00 s00)))
 (let ((?x1092 (* 51 ?x545)))
 (let ((?x959 (* r00 r00 s)))
 (let ((?x641 (* 36 ?x959)))
 (let ((?x1138 (* s00 s00 s00)))
 (let ((?x1029 (* 16 ?x1138)))
 (let ((?x759 (* s00 x00)))
 (let ((?x842 (* (- 108) ?x759)))
 (let ((?x836 (* r00 r00 r00 x00)))
 (let ((?x846 (* (- 432) ?x836)))
 (let ((?x476 (* r00 x00)))
 (let ((?x333 (* 108 ?x476)))
 (let ((?x298 (+ (* 216 (* r00 s00 x00)) ?x333 (* (- 54) (* r00 s00)) (* 15 (* s s)) (* (- 216) (* r00 r00 r00 s)) (* (- 36) (* r00 r00 s00 s00)) (* (- 4) (* s s s)) (* 108 (* x x)) ?x846 (* (- 12) (* s00 s s)) (* 108 (* s00 x)) (* (- 108) (* r00 s00 s00)) (* 216 (* r00 r00 r00 s00)) (* 108 (* x00 s)) (* 432 (* r00 r00 r00 x)) (* (- 66) (* s00 s)) (* 108 (* r00 s00 s)) ?x842 (* (- 216) (* r00 s00 x)) (* 36 (* r00 r00 s s)) ?x1029 (* (- 108) (* x s)) ?x641 ?x1092 (* (- 108) (* r00 x)) ?x137 ?x1195 ?x1242 (* 54 (* r00 s)) (* (- 216) (* x00 x)) ?x310)))
 (let (($x323 (= ?x298 0)))
 (let ((?x143 (* 9 s)))
 (let ((?x941 (* (- 9) s00)))
 (let ((?x870 (* (- 15) ?x545)))
 (let ((?x831 (* r00 r00 x00)))
 (let ((?x844 (* (- 36) ?x831)))
 (let ((?x760 (* 6 ?x759)))
 (let ((?x499 (* s s)))
 (let ((?x523 (* 3 ?x499)))
 (let ((?x505 (* (- 54) ?x476)))
 (let ((?x549 (+ (* (- 24) (* s r)) ?x505 (* 36 (* r00 x r)) (* 24 (* r00 s00)) ?x523 (* 54 (* x r)) (* (- 6) (* s00 x)) (* 4 (* r00 s s)) (* (- 2) (* r00 s00 s00)) (* (- 6) (* x00 s)) (* 12 (* s00 s)) (* (- 2) (* r00 s00 s)) ?x760 (* 2 (* s s r)) (* 6 (* x s)) (* (- 4) (* s00 s00 r)) (* (- 36) ?x959) ?x844 ?x870 (* 2 (* s00 s r)) (* (- 36) (* r00 x00 r)) (* 54 (* r00 x)) ?x941 (* 36 ?x728) (* (- 54) (* x00 r)) ?x143 (* 24 (* s00 r)) (* (- 24) (* r00 s)) (* 36 (* r00 r00 x)))))
 (let ((?x47 (* 3 s)))
 (let ((?x332 (* (- 3) s00)))
 (let ((?x558 (* (- 4) ?x545)))
 (let ((?x500 (* 2 ?x499)))
 (let ((?x490 (* (- 18) ?x476)))
 (let ((?x778 (+ (* (- 9) (* s r)) ?x490 (* 9 (* r00 s00)) ?x500 (* 18 (* x r)) (* 6 (* r00 s r)) (* (- 6) ?x959) ?x558 (* 18 (* r00 x)) ?x332 (* 6 ?x728) (* (- 18) (* x00 r)) ?x47 (* 9 (* s00 r)) (* 2 (* s00 s)) (* (- 9) (* r00 s)) (* (- 6) (* r00 s00 r)))))
 (let ((?x59 (* 6 x00)))
 (let ((?x48 (* 3 r00)))
 (let ((?x303 (* (- 3) r)))
 (let ((?x440 (+ (* (- 2) (* s r)) (* 12 (* r00 r00 r)) ?x303 ?x332 ?x47 ?x48 (* (- 4) (* s00 r)) (* 6 (* r00 s00)) (* (- 6) x) ?x59 (* (- 12) (* r00 r00 r00)))))
 (let (($x805 (= (+ s00 ?x234 (* 3 (* r r)) ?x269) 0)))
 (and $x805 (= ?x440 0) (= ?x778 0) (= ?x549 0) $x323 $x673))))))))))))))))))))))))))))))))))))))))))))))))))))) :qid k!35))
 ))
 (let ((?x1297 (lambda ((r Int) (s Int) (x Int) )(let ((?x255 (* r00 r00)))
 (let ((?x269 (* (- 3) ?x255)))
 (let ((?x234 (* (- 1) s)))
 (let ((?x1069 (+ (- 3) s00 ?x234 (* (- 6) r) (* 3 (* (+ 1 r) (+ 1 r))) ?x269)))
 (let ((?x1605 (* (- 1) x)))
 (let ((?x211 (* 6 r)))
 (let ((?x777 (+ 3 s ?x211)))
 (let ((?x845 (+ x ?x234)))
 (let ((?x1370 (+ 1 r)))
 (let ((?x610 (* (+ (* ?x1370 ?x1370 ?x1370 ?x845 ?x845 ?x777 ?x777 ?x777) x ?x234) (+ (* (- 1) (* ?x1370 ?x1370 ?x1370 ?x845 ?x845 ?x845 ?x777)) ?x1605 ?x234) ?x1069)))
 (let (($x673 (not (= ?x610 0))))
 (let ((?x1300 (* x00 x00)))
 (let ((?x310 (* 108 ?x1300)))
 (let ((?x1242 (* (- 9) s)))
 (let ((?x728 (* r00 r00 s00)))
 (let ((?x1195 (* (- 36) ?x728)))
 (let ((?x137 (* 9 s00)))
 (let ((?x545 (* s00 s00)))
 (let ((?x1092 (* 51 ?x545)))
 (let ((?x959 (* r00 r00 s)))
 (let ((?x641 (* 36 ?x959)))
 (let ((?x1138 (* s00 s00 s00)))
 (let ((?x1029 (* 16 ?x1138)))
 (let ((?x759 (* s00 x00)))
 (let ((?x842 (* (- 108) ?x759)))
 (let ((?x836 (* r00 r00 r00 x00)))
 (let ((?x846 (* (- 432) ?x836)))
 (let ((?x476 (* r00 x00)))
 (let ((?x333 (* 108 ?x476)))
 (let ((?x298 (+ (* 216 (* r00 s00 x00)) ?x333 (* (- 54) (* r00 s00)) (* 15 (* s s)) (* (- 216) (* r00 r00 r00 s)) (* (- 36) (* r00 r00 s00 s00)) (* (- 4) (* s s s)) (* 108 (* x x)) ?x846 (* (- 12) (* s00 s s)) (* 108 (* s00 x)) (* (- 108) (* r00 s00 s00)) (* 216 (* r00 r00 r00 s00)) (* 108 (* x00 s)) (* 432 (* r00 r00 r00 x)) (* (- 66) (* s00 s)) (* 108 (* r00 s00 s)) ?x842 (* (- 216) (* r00 s00 x)) (* 36 (* r00 r00 s s)) ?x1029 (* (- 108) (* x s)) ?x641 ?x1092 (* (- 108) (* r00 x)) ?x137 ?x1195 ?x1242 (* 54 (* r00 s)) (* (- 216) (* x00 x)) ?x310)))
 (let (($x323 (= ?x298 0)))
 (let ((?x687 (* 15 ?x545)))
 (let ((?x831 (* r00 r00 x00)))
 (let ((?x681 (* 36 ?x831)))
 (let ((?x372 (* (- 6) ?x759)))
 (let ((?x972 (* 54 ?x476)))
 (let ((?x1296 (+ (* 24 (* s r)) ?x972 (* (- 36) (* r00 x r)) (* (- 24) (* r00 s00)) (* (- 3) (* s s)) (* (- 54) (* x r)) (* 6 (* s00 x)) (* (- 4) (* r00 s s)) (* 2 (* r00 s00 s00)) (* 6 (* x00 s)) (* (- 12) (* s00 s)) (* 2 (* r00 s00 s)) ?x372 (* (- 2) (* s s r)) (* (- 6) (* x s)) (* 4 (* s00 s00 r)) ?x641 ?x681 ?x687 (* (- 2) (* s00 s r)) (* 36 (* r00 x00 r)) (* (- 54) (* r00 x)) ?x137 ?x1195 (* 54 (* x00 r)) ?x1242 (* (- 24) (* s00 r)) (* 24 (* r00 s)) (* (- 36) (* r00 r00 x)))))
 (let ((?x453 (* (- 3) s)))
 (let ((?x44 (* 3 s00)))
 (let ((?x1078 (* 4 ?x545)))
 (let ((?x488 (* 18 ?x476)))
 (let ((?x771 (+ (* 9 (* s r)) ?x488 (* (- 9) (* r00 s00)) (* (- 2) (* s s)) (* (- 18) (* x r)) (* (- 6) (* r00 s r)) (* 6 ?x959) ?x1078 (* (- 18) (* r00 x)) ?x44 (* (- 6) ?x728) (* 18 (* x00 r)) ?x453 (* (- 9) (* s00 r)) (* (- 2) (* s00 s)) (* 9 (* r00 s)) (* 6 (* r00 s00 r)))))
 (let ((?x423 (* r00 r00 r00)))
 (let ((?x424 (* 12 ?x423)))
 (let ((?x455 (* (- 6) x00)))
 (let ((?x56 (* 6 x)))
 (let ((?x454 (* (- 3) r00)))
 (let ((?x43 (* 3 r)))
 (let ((?x1258 (+ (* 2 (* s r)) (* (- 12) (* r00 r00 r)) ?x43 ?x44 ?x453 ?x454 (* 4 (* s00 r)) (* (- 6) (* r00 s00)) ?x56 ?x455 ?x424)))
 (let (($x805 (= (+ s00 ?x234 (* 3 (* r r)) ?x269) 0)))
 (let (($x438 (and $x805 (= ?x1258 0) (= ?x771 0) (= ?x1296 0) $x323 $x673)))
 (let ((?x143 (* 9 s)))
 (let ((?x941 (* (- 9) s00)))
 (let ((?x870 (* (- 15) ?x545)))
 (let ((?x844 (* (- 36) ?x831)))
 (let ((?x760 (* 6 ?x759)))
 (let ((?x499 (* s s)))
 (let ((?x523 (* 3 ?x499)))
 (let ((?x505 (* (- 54) ?x476)))
 (let ((?x549 (+ (* (- 24) (* s r)) ?x505 (* 36 (* r00 x r)) (* 24 (* r00 s00)) ?x523 (* 54 (* x r)) (* (- 6) (* s00 x)) (* 4 (* r00 s s)) (* (- 2) (* r00 s00 s00)) (* (- 6) (* x00 s)) (* 12 (* s00 s)) (* (- 2) (* r00 s00 s)) ?x760 (* 2 (* s s r)) (* 6 (* x s)) (* (- 4) (* s00 s00 r)) (* (- 36) ?x959) ?x844 ?x870 (* 2 (* s00 s r)) (* (- 36) (* r00 x00 r)) (* 54 (* r00 x)) ?x941 (* 36 ?x728) (* (- 54) (* x00 r)) ?x143 (* 24 (* s00 r)) (* (- 24) (* r00 s)) (* 36 (* r00 r00 x)))))
 (let ((?x47 (* 3 s)))
 (let ((?x332 (* (- 3) s00)))
 (let ((?x558 (* (- 4) ?x545)))
 (let ((?x500 (* 2 ?x499)))
 (let ((?x490 (* (- 18) ?x476)))
 (let ((?x778 (+ (* (- 9) (* s r)) ?x490 (* 9 (* r00 s00)) ?x500 (* 18 (* x r)) (* 6 (* r00 s r)) (* (- 6) ?x959) ?x558 (* 18 (* r00 x)) ?x332 (* 6 ?x728) (* (- 18) (* x00 r)) ?x47 (* 9 (* s00 r)) (* 2 (* s00 s)) (* (- 9) (* r00 s)) (* (- 6) (* r00 s00 r)))))
 (let ((?x59 (* 6 x00)))
 (let ((?x48 (* 3 r00)))
 (let ((?x303 (* (- 3) r)))
 (let ((?x440 (+ (* (- 2) (* s r)) (* 12 (* r00 r00 r)) ?x303 ?x332 ?x47 ?x48 (* (- 4) (* s00 r)) (* 6 (* r00 s00)) (* (- 6) x) ?x59 (* (- 12) ?x423))))
 (let (($x1421 (and $x805 (= ?x440 0) (= ?x778 0) (= ?x549 0) $x323 $x673)))
 (rewrite (= $x1421 $x438))))))))))))))))))))))))))))))))))))))))))))))))))))))))))))))))))))))))))
 ))
 (let (($x231 (exists ((r Int) (s Int) (x Int) )(! (let ((?x220 (- x s)))
 (let ((?x211 (* 6 r)))
 (let ((?x212 (+ s ?x211 3)))
 (let ((?x215 (+ r 1)))
 (let ((?x226 (* (- (+ (- s00 ?x212) (* 3 ?x215 ?x215)) (* 3 r00 r00)) (- (- (* (- 1) ?x215 ?x215 ?x215 ?x212 ?x220 ?x220 ?x220) x) s) (+ (* ?x215 ?x215 ?x215 ?x212 ?x212 ?x212 ?x220 ?x220) ?x220))))
 (let ((?x143 (* 9 s)))
 (let ((?x139 (* 36 r00 r00 s00)))
 (let ((?x137 (* 9 s00)))
 (let ((?x123 (* 36 r00 r00 s)))
 (let ((?x157 (- (+ (* 216 r00 s00 x00) (* 108 r00 x00)) (* 54 r00 s00))))
 (let ((?x164 (- (- (+ ?x157 (* 15 s s)) (* 216 r00 r00 r00 s)) (* 36 r00 r00 s00 s00))))
 (let ((?x171 (- (+ (- ?x164 (* 4 s s s)) (* 108 x x)) (* 432 r00 r00 r00 x00))))
 (let ((?x176 (- (+ (- ?x171 (* 12 s s s00)) (* 108 s00 x)) (* 108 r00 s00 s00))))
 (let ((?x180 (+ ?x176 (* 216 r00 r00 r00 s00) (* 108 s x00) (* 432 r00 r00 r00 x))))
 (let ((?x188 (- (+ (- ?x180 (* 66 s s00)) (* 108 r00 s s00)) (* 108 s00 x00))))
 (let ((?x193 (+ (- ?x188 (* 216 r00 s00 x)) (* 36 r00 r00 s s) (* 16 s00 s00 s00))))
 (let ((?x200 (- (+ (- ?x193 (* 108 s x)) ?x123 (* 51 s00 s00)) (* 108 r00 x))))
 (let ((?x207 (- (+ (- (- (+ ?x200 ?x137) ?x139) ?x143) (* 54 r00 s)) (* 216 x x00))))
 (let ((?x105 (+ (- (* (- 24) r s) (* 54 r00 x00)) (* 36 r r00 x) (* 24 r00 s00) (* 3 s s) (* 54 r x))))
 (let ((?x112 (- (+ (- ?x105 (* 6 s00 x)) (* 4 r00 s s)) (* 2 r00 s00 s00))))
 (let ((?x117 (- (+ (- ?x112 (* 6 s x00)) (* 12 s s00)) (* 2 r00 s s00))))
 (let ((?x121 (+ ?x117 (* 6 s00 x00) (* 2 r s s) (* 6 s x))))
 (let ((?x129 (- (- (- ?x121 (* 4 r s00 s00)) ?x123) (* 36 r00 r00 x00))))
 (let ((?x134 (- (+ (- ?x129 (* 15 s00 s00)) (* 2 r s s00)) (* 36 r r00 x00))))
 (let ((?x142 (- (+ (- (+ ?x134 (* 54 r00 x)) ?x137) ?x139) (* 54 r x00))))
 (let ((?x149 (+ (- (+ ?x142 ?x143 (* 24 r s00)) (* 24 r00 s)) (* 36 r00 r00 x))))
 (let ((?x47 (* 3 s)))
 (let ((?x44 (* 3 s00)))
 (let ((?x74 (+ (- (* (- 9) r s) (* 18 r00 x00)) (* 9 r00 s00) (* 2 s s) (* 18 r x) (* 6 r r00 s))))
 (let ((?x80 (+ (- (- ?x74 (* 6 r00 r00 s)) (* 4 s00 s00)) (* 18 r00 x))))
 (let ((?x85 (- (+ (- ?x80 ?x44) (* 6 r00 r00 s00)) (* 18 r x00))))
 (let ((?x91 (- (+ ?x85 ?x47 (* 9 r s00) (* 2 s s00)) (* 9 r00 s))))
 (let ((?x59 (* 6 x00)))
 (let ((?x56 (* 6 x)))
 (let ((?x48 (* 3 r00)))
 (let ((?x43 (* 3 r)))
 (let ((?x46 (- (- (+ (* (- 2) r s) (* 12 r r00 r00)) ?x43) ?x44)))
 (let ((?x55 (+ (- (+ ?x46 ?x47 ?x48) (* 4 r s00)) (* 6 r00 s00))))
 (let (($x36 (= (- (+ (- s00 s) (* 3 r r)) (* 3 r00 r00)) 0)))
 (and $x36 (= (- (+ (- ?x55 ?x56) ?x59) (* 12 r00 r00 r00)) 0) (= (- ?x91 (* 6 r r00 s00)) 0) (= ?x149 0) (= (+ ?x207 (* 108 x00 x00)) 0) (or (not (= ?x226 0))))))))))))))))))))))))))))))))))))))))))) :qid k!35))
 ))
 (let ((?x936 (lambda ((r Int) (s Int) (x Int) )(let ((?x255 (* r00 r00)))
 (let ((?x269 (* (- 3) ?x255)))
 (let ((?x234 (* (- 1) s)))
 (let ((?x1069 (+ (- 3) s00 ?x234 (* (- 6) r) (* 3 (* (+ 1 r) (+ 1 r))) ?x269)))
 (let ((?x1605 (* (- 1) x)))
 (let ((?x211 (* 6 r)))
 (let ((?x777 (+ 3 s ?x211)))
 (let ((?x845 (+ x ?x234)))
 (let ((?x1370 (+ 1 r)))
 (let ((?x610 (* (+ (* ?x1370 ?x1370 ?x1370 ?x845 ?x845 ?x777 ?x777 ?x777) x ?x234) (+ (* (- 1) (* ?x1370 ?x1370 ?x1370 ?x845 ?x845 ?x845 ?x777)) ?x1605 ?x234) ?x1069)))
 (let (($x673 (not (= ?x610 0))))
 (let ((?x1300 (* x00 x00)))
 (let ((?x310 (* 108 ?x1300)))
 (let ((?x1242 (* (- 9) s)))
 (let ((?x728 (* r00 r00 s00)))
 (let ((?x1195 (* (- 36) ?x728)))
 (let ((?x137 (* 9 s00)))
 (let ((?x545 (* s00 s00)))
 (let ((?x1092 (* 51 ?x545)))
 (let ((?x959 (* r00 r00 s)))
 (let ((?x641 (* 36 ?x959)))
 (let ((?x1138 (* s00 s00 s00)))
 (let ((?x1029 (* 16 ?x1138)))
 (let ((?x759 (* s00 x00)))
 (let ((?x842 (* (- 108) ?x759)))
 (let ((?x836 (* r00 r00 r00 x00)))
 (let ((?x846 (* (- 432) ?x836)))
 (let ((?x476 (* r00 x00)))
 (let ((?x333 (* 108 ?x476)))
 (let ((?x298 (+ (* 216 (* r00 s00 x00)) ?x333 (* (- 54) (* r00 s00)) (* 15 (* s s)) (* (- 216) (* r00 r00 r00 s)) (* (- 36) (* r00 r00 s00 s00)) (* (- 4) (* s s s)) (* 108 (* x x)) ?x846 (* (- 12) (* s00 s s)) (* 108 (* s00 x)) (* (- 108) (* r00 s00 s00)) (* 216 (* r00 r00 r00 s00)) (* 108 (* x00 s)) (* 432 (* r00 r00 r00 x)) (* (- 66) (* s00 s)) (* 108 (* r00 s00 s)) ?x842 (* (- 216) (* r00 s00 x)) (* 36 (* r00 r00 s s)) ?x1029 (* (- 108) (* x s)) ?x641 ?x1092 (* (- 108) (* r00 x)) ?x137 ?x1195 ?x1242 (* 54 (* r00 s)) (* (- 216) (* x00 x)) ?x310)))
 (let (($x323 (= ?x298 0)))
 (let ((?x143 (* 9 s)))
 (let ((?x941 (* (- 9) s00)))
 (let ((?x870 (* (- 15) ?x545)))
 (let ((?x831 (* r00 r00 x00)))
 (let ((?x844 (* (- 36) ?x831)))
 (let ((?x760 (* 6 ?x759)))
 (let ((?x499 (* s s)))
 (let ((?x523 (* 3 ?x499)))
 (let ((?x505 (* (- 54) ?x476)))
 (let ((?x549 (+ (* (- 24) (* s r)) ?x505 (* 36 (* r00 x r)) (* 24 (* r00 s00)) ?x523 (* 54 (* x r)) (* (- 6) (* s00 x)) (* 4 (* r00 s s)) (* (- 2) (* r00 s00 s00)) (* (- 6) (* x00 s)) (* 12 (* s00 s)) (* (- 2) (* r00 s00 s)) ?x760 (* 2 (* s s r)) (* 6 (* x s)) (* (- 4) (* s00 s00 r)) (* (- 36) ?x959) ?x844 ?x870 (* 2 (* s00 s r)) (* (- 36) (* r00 x00 r)) (* 54 (* r00 x)) ?x941 (* 36 ?x728) (* (- 54) (* x00 r)) ?x143 (* 24 (* s00 r)) (* (- 24) (* r00 s)) (* 36 (* r00 r00 x)))))
 (let ((?x47 (* 3 s)))
 (let ((?x332 (* (- 3) s00)))
 (let ((?x558 (* (- 4) ?x545)))
 (let ((?x500 (* 2 ?x499)))
 (let ((?x490 (* (- 18) ?x476)))
 (let ((?x778 (+ (* (- 9) (* s r)) ?x490 (* 9 (* r00 s00)) ?x500 (* 18 (* x r)) (* 6 (* r00 s r)) (* (- 6) ?x959) ?x558 (* 18 (* r00 x)) ?x332 (* 6 ?x728) (* (- 18) (* x00 r)) ?x47 (* 9 (* s00 r)) (* 2 (* s00 s)) (* (- 9) (* r00 s)) (* (- 6) (* r00 s00 r)))))
 (let ((?x59 (* 6 x00)))
 (let ((?x48 (* 3 r00)))
 (let ((?x303 (* (- 3) r)))
 (let ((?x440 (+ (* (- 2) (* s r)) (* 12 (* r00 r00 r)) ?x303 ?x332 ?x47 ?x48 (* (- 4) (* s00 r)) (* 6 (* r00 s00)) (* (- 6) x) ?x59 (* (- 12) (* r00 r00 r00)))))
 (let (($x805 (= (+ s00 ?x234 (* 3 (* r r)) ?x269) 0)))
 (let (($x1421 (and $x805 (= ?x440 0) (= ?x778 0) (= ?x549 0) $x323 $x673)))
 (let ((?x220 (- x s)))
 (let ((?x212 (+ s ?x211 3)))
 (let ((?x215 (+ r 1)))
 (let ((?x226 (* (- (+ (- s00 ?x212) (* 3 ?x215 ?x215)) (* 3 r00 r00)) (- (- (* (- 1) ?x215 ?x215 ?x215 ?x212 ?x220 ?x220 ?x220) x) s) (+ (* ?x215 ?x215 ?x215 ?x212 ?x212 ?x212 ?x220 ?x220) ?x220))))
 (let ((?x139 (* 36 r00 r00 s00)))
 (let ((?x123 (* 36 r00 r00 s)))
 (let ((?x157 (- (+ (* 216 r00 s00 x00) (* 108 r00 x00)) (* 54 r00 s00))))
 (let ((?x164 (- (- (+ ?x157 (* 15 s s)) (* 216 r00 r00 r00 s)) (* 36 r00 r00 s00 s00))))
 (let ((?x171 (- (+ (- ?x164 (* 4 s s s)) (* 108 x x)) (* 432 r00 r00 r00 x00))))
 (let ((?x176 (- (+ (- ?x171 (* 12 s s s00)) (* 108 s00 x)) (* 108 r00 s00 s00))))
 (let ((?x180 (+ ?x176 (* 216 r00 r00 r00 s00) (* 108 s x00) (* 432 r00 r00 r00 x))))
 (let ((?x188 (- (+ (- ?x180 (* 66 s s00)) (* 108 r00 s s00)) (* 108 s00 x00))))
 (let ((?x193 (+ (- ?x188 (* 216 r00 s00 x)) (* 36 r00 r00 s s) (* 16 s00 s00 s00))))
 (let ((?x200 (- (+ (- ?x193 (* 108 s x)) ?x123 (* 51 s00 s00)) (* 108 r00 x))))
 (let ((?x207 (- (+ (- (- (+ ?x200 ?x137) ?x139) ?x143) (* 54 r00 s)) (* 216 x x00))))
 (let ((?x105 (+ (- (* (- 24) r s) (* 54 r00 x00)) (* 36 r r00 x) (* 24 r00 s00) (* 3 s s) (* 54 r x))))
 (let ((?x112 (- (+ (- ?x105 (* 6 s00 x)) (* 4 r00 s s)) (* 2 r00 s00 s00))))
 (let ((?x117 (- (+ (- ?x112 (* 6 s x00)) (* 12 s s00)) (* 2 r00 s s00))))
 (let ((?x121 (+ ?x117 (* 6 s00 x00) (* 2 r s s) (* 6 s x))))
 (let ((?x129 (- (- (- ?x121 (* 4 r s00 s00)) ?x123) (* 36 r00 r00 x00))))
 (let ((?x134 (- (+ (- ?x129 (* 15 s00 s00)) (* 2 r s s00)) (* 36 r r00 x00))))
 (let ((?x142 (- (+ (- (+ ?x134 (* 54 r00 x)) ?x137) ?x139) (* 54 r x00))))
 (let ((?x149 (+ (- (+ ?x142 ?x143 (* 24 r s00)) (* 24 r00 s)) (* 36 r00 r00 x))))
 (let ((?x44 (* 3 s00)))
 (let ((?x74 (+ (- (* (- 9) r s) (* 18 r00 x00)) (* 9 r00 s00) (* 2 s s) (* 18 r x) (* 6 r r00 s))))
 (let ((?x80 (+ (- (- ?x74 (* 6 r00 r00 s)) (* 4 s00 s00)) (* 18 r00 x))))
 (let ((?x85 (- (+ (- ?x80 ?x44) (* 6 r00 r00 s00)) (* 18 r x00))))
 (let ((?x91 (- (+ ?x85 ?x47 (* 9 r s00) (* 2 s s00)) (* 9 r00 s))))
 (let ((?x56 (* 6 x)))
 (let ((?x43 (* 3 r)))
 (let ((?x46 (- (- (+ (* (- 2) r s) (* 12 r r00 r00)) ?x43) ?x44)))
 (let ((?x55 (+ (- (+ ?x46 ?x47 ?x48) (* 4 r s00)) (* 6 r00 s00))))
 (let (($x36 (= (- (+ (- s00 s) (* 3 r r)) (* 3 r00 r00)) 0)))
 (let (($x230 (and $x36 (= (- (+ (- ?x55 ?x56) ?x59) (* 12 r00 r00 r00)) 0) (= (- ?x91 (* 6 r r00 s00)) 0) (= ?x149 0) (= (+ ?x207 (* 108 x00 x00)) 0) (or (not (= ?x226 0))))))
 (rewrite (= $x230 $x1421))))))))))))))))))))))))))))))))))))))))))))))))))))))))))))))))))))))))))))))))))))))))))
 ))
 (let ((@x232 (asserted $x231)))
 (let ((@x682 (mp (mp @x232 (quant-intro (proof-bind ?x936) (= $x231 $x697)) $x697) (rewrite (= $x697 $x697)) $x697)))
 (let ((@x615 (mp (mp @x682 (quant-intro (proof-bind ?x1297) (= $x697 $x437)) $x437) (quant-intro (proof-bind ?x1235) (= $x437 $x1234)) $x1234)))
 (let ((@x338 (mp (mp~ @x615 (sk (~ $x1234 $x999)) $x999) (rewrite (= $x999 $x668)) $x668)))
 (let ((@x1440 (and-elim @x338 $x1011)))
 (let ((@x578 (unit-resolution ((_ th-lemma arith triangle-eq) (or (not $x1011) $x1359)) @x1440 $x1359)))
 (let (($x1356 (>= ?x1372 0)))
 (let ((@x657 (unit-resolution ((_ th-lemma arith triangle-eq) (or (not $x1011) $x1356)) @x1440 $x1356)))
 (let (($x1096 (not (<= ?x672 0))))
 (let (($x740 (>= ?x672 0)))
 (let ((@x1202 (unit-resolution ((_ th-lemma arith triangle-eq) (or $x483 $x1096 (not $x740))) (and-elim @x338 $x674) (or $x1096 (not $x740)))))
 (let ((@x1217 (unit-resolution @x1202 (lemma ((_ th-lemma arith farkas 1 1 1) (hypothesis (not $x740)) @x657 @x578 false) $x740) $x1096)))
 ((_ th-lemma arith farkas 1 1 1) @x1217 @x657 @x578 false)))))))))))))))))))))))))))))))))))))))))))))))))))))))))))))))))))))))))))))))))))))))))))))))))))))))))))))))))))))

(:added-eqs                 5
 :arith-assert-diseq        1
 :arith-assert-lower        9
 :arith-assert-upper        8
 :arith-conflicts           2
 :arith-eq-adapter          6
 :arith-num-rows            10
 :arith-pseudo-nonlinear    2
 :arith-tableau-max-columns 98
 :arith-tableau-max-rows    10
 :conflicts                 2
 :decisions                 1
 :del-clause                17
 :max-memory                3.92
 :memory                    3.32
 :mk-bool-var               24
 :mk-clause                 19
 :num-allocs                1336558
 :num-checks                1
 :propagations              12
 :rlimit-count              6741
 :time                      0.01
 :total-time                0.02)
